; benchmark generated from python API
(set-info :status unknown)
(declare-fun makespan () Int)
(declare-fun y_0 () Int)
(declare-fun x_0 () Int)
(declare-fun ud_1_3 () Bool)
(declare-fun y_1 () Int)
(declare-fun x_1 () Int)
(declare-fun ud_2_3 () Bool)
(declare-fun y_2 () Int)
(declare-fun x_2 () Int)
(declare-fun y_3 () Int)
(declare-fun x_3 () Int)
(declare-fun ud_4_3 () Bool)
(declare-fun y_4 () Int)
(declare-fun x_4 () Int)
(declare-fun ud_5_3 () Bool)
(declare-fun y_5 () Int)
(declare-fun x_5 () Int)
(declare-fun ud_6_3 () Bool)
(declare-fun y_6 () Int)
(declare-fun x_6 () Int)
(declare-fun ud_7_3 () Bool)
(declare-fun y_7 () Int)
(declare-fun x_7 () Int)
(declare-fun ud_8_3 () Bool)
(declare-fun y_8 () Int)
(declare-fun x_8 () Int)
(declare-fun y_9 () Int)
(declare-fun x_9 () Int)
(declare-fun lr_1_2 () Bool)
(declare-fun ud_1_2 () Bool)
(declare-fun lr_2_1 () Bool)
(declare-fun ud_2_1 () Bool)
(declare-fun lr_1_3 () Bool)
(declare-fun lr_3_1 () Bool)
(declare-fun ud_3_1 () Bool)
(declare-fun lr_1_4 () Bool)
(declare-fun ud_1_4 () Bool)
(declare-fun lr_4_1 () Bool)
(declare-fun ud_4_1 () Bool)
(declare-fun lr_1_5 () Bool)
(declare-fun ud_1_5 () Bool)
(declare-fun lr_5_1 () Bool)
(declare-fun ud_5_1 () Bool)
(declare-fun lr_1_6 () Bool)
(declare-fun ud_1_6 () Bool)
(declare-fun lr_6_1 () Bool)
(declare-fun ud_6_1 () Bool)
(declare-fun lr_1_7 () Bool)
(declare-fun ud_1_7 () Bool)
(declare-fun lr_7_1 () Bool)
(declare-fun ud_7_1 () Bool)
(declare-fun lr_1_8 () Bool)
(declare-fun ud_1_8 () Bool)
(declare-fun lr_8_1 () Bool)
(declare-fun ud_8_1 () Bool)
(declare-fun lr_1_9 () Bool)
(declare-fun ud_1_9 () Bool)
(declare-fun lr_9_1 () Bool)
(declare-fun ud_9_1 () Bool)
(declare-fun lr_1_10 () Bool)
(declare-fun ud_1_10 () Bool)
(declare-fun lr_10_1 () Bool)
(declare-fun ud_10_1 () Bool)
(declare-fun lr_2_3 () Bool)
(declare-fun lr_3_2 () Bool)
(declare-fun ud_3_2 () Bool)
(declare-fun lr_2_4 () Bool)
(declare-fun ud_2_4 () Bool)
(declare-fun lr_4_2 () Bool)
(declare-fun ud_4_2 () Bool)
(declare-fun lr_2_5 () Bool)
(declare-fun ud_2_5 () Bool)
(declare-fun lr_5_2 () Bool)
(declare-fun ud_5_2 () Bool)
(declare-fun lr_2_6 () Bool)
(declare-fun ud_2_6 () Bool)
(declare-fun lr_6_2 () Bool)
(declare-fun ud_6_2 () Bool)
(declare-fun lr_2_7 () Bool)
(declare-fun ud_2_7 () Bool)
(declare-fun lr_7_2 () Bool)
(declare-fun ud_7_2 () Bool)
(declare-fun lr_2_8 () Bool)
(declare-fun ud_2_8 () Bool)
(declare-fun lr_8_2 () Bool)
(declare-fun ud_8_2 () Bool)
(declare-fun lr_2_9 () Bool)
(declare-fun ud_2_9 () Bool)
(declare-fun lr_9_2 () Bool)
(declare-fun ud_9_2 () Bool)
(declare-fun lr_2_10 () Bool)
(declare-fun ud_2_10 () Bool)
(declare-fun lr_10_2 () Bool)
(declare-fun ud_10_2 () Bool)
(declare-fun lr_3_4 () Bool)
(declare-fun ud_3_4 () Bool)
(declare-fun lr_4_3 () Bool)
(declare-fun lr_3_5 () Bool)
(declare-fun ud_3_5 () Bool)
(declare-fun lr_5_3 () Bool)
(declare-fun lr_3_6 () Bool)
(declare-fun ud_3_6 () Bool)
(declare-fun lr_6_3 () Bool)
(declare-fun lr_3_7 () Bool)
(declare-fun ud_3_7 () Bool)
(declare-fun lr_7_3 () Bool)
(declare-fun lr_3_8 () Bool)
(declare-fun ud_3_8 () Bool)
(declare-fun lr_8_3 () Bool)
(declare-fun lr_3_9 () Bool)
(declare-fun ud_3_9 () Bool)
(declare-fun lr_9_3 () Bool)
(declare-fun ud_9_3 () Bool)
(declare-fun lr_3_10 () Bool)
(declare-fun ud_3_10 () Bool)
(declare-fun lr_10_3 () Bool)
(declare-fun ud_10_3 () Bool)
(declare-fun lr_4_5 () Bool)
(declare-fun ud_4_5 () Bool)
(declare-fun lr_5_4 () Bool)
(declare-fun ud_5_4 () Bool)
(declare-fun lr_4_6 () Bool)
(declare-fun ud_4_6 () Bool)
(declare-fun lr_6_4 () Bool)
(declare-fun ud_6_4 () Bool)
(declare-fun lr_4_7 () Bool)
(declare-fun ud_4_7 () Bool)
(declare-fun lr_7_4 () Bool)
(declare-fun ud_7_4 () Bool)
(declare-fun lr_4_8 () Bool)
(declare-fun ud_4_8 () Bool)
(declare-fun lr_8_4 () Bool)
(declare-fun ud_8_4 () Bool)
(declare-fun lr_4_9 () Bool)
(declare-fun ud_4_9 () Bool)
(declare-fun lr_9_4 () Bool)
(declare-fun ud_9_4 () Bool)
(declare-fun lr_4_10 () Bool)
(declare-fun ud_4_10 () Bool)
(declare-fun lr_10_4 () Bool)
(declare-fun ud_10_4 () Bool)
(declare-fun lr_5_6 () Bool)
(declare-fun ud_5_6 () Bool)
(declare-fun lr_6_5 () Bool)
(declare-fun ud_6_5 () Bool)
(declare-fun lr_5_7 () Bool)
(declare-fun ud_5_7 () Bool)
(declare-fun lr_7_5 () Bool)
(declare-fun ud_7_5 () Bool)
(declare-fun lr_5_8 () Bool)
(declare-fun ud_5_8 () Bool)
(declare-fun lr_8_5 () Bool)
(declare-fun ud_8_5 () Bool)
(declare-fun lr_5_9 () Bool)
(declare-fun ud_5_9 () Bool)
(declare-fun lr_9_5 () Bool)
(declare-fun ud_9_5 () Bool)
(declare-fun lr_5_10 () Bool)
(declare-fun ud_5_10 () Bool)
(declare-fun lr_10_5 () Bool)
(declare-fun ud_10_5 () Bool)
(declare-fun lr_6_7 () Bool)
(declare-fun ud_6_7 () Bool)
(declare-fun lr_7_6 () Bool)
(declare-fun ud_7_6 () Bool)
(declare-fun lr_6_8 () Bool)
(declare-fun ud_6_8 () Bool)
(declare-fun lr_8_6 () Bool)
(declare-fun ud_8_6 () Bool)
(declare-fun lr_6_9 () Bool)
(declare-fun ud_6_9 () Bool)
(declare-fun lr_9_6 () Bool)
(declare-fun ud_9_6 () Bool)
(declare-fun lr_6_10 () Bool)
(declare-fun ud_6_10 () Bool)
(declare-fun lr_10_6 () Bool)
(declare-fun ud_10_6 () Bool)
(declare-fun lr_7_8 () Bool)
(declare-fun ud_7_8 () Bool)
(declare-fun lr_8_7 () Bool)
(declare-fun ud_8_7 () Bool)
(declare-fun lr_7_9 () Bool)
(declare-fun ud_7_9 () Bool)
(declare-fun lr_9_7 () Bool)
(declare-fun ud_9_7 () Bool)
(declare-fun lr_7_10 () Bool)
(declare-fun ud_7_10 () Bool)
(declare-fun lr_10_7 () Bool)
(declare-fun ud_10_7 () Bool)
(declare-fun lr_8_9 () Bool)
(declare-fun ud_8_9 () Bool)
(declare-fun lr_9_8 () Bool)
(declare-fun ud_9_8 () Bool)
(declare-fun lr_8_10 () Bool)
(declare-fun ud_8_10 () Bool)
(declare-fun lr_10_8 () Bool)
(declare-fun ud_10_8 () Bool)
(declare-fun lr_9_10 () Bool)
(declare-fun ud_9_10 () Bool)
(declare-fun lr_10_9 () Bool)
(declare-fun ud_10_9 () Bool)
(assert
 (>= makespan 16))
(assert
 (<= makespan 21))
(assert
 (let ((?x81030 (+ y_0 9)))
 (<= ?x81030 makespan)))
(assert
 (let ((?x7209 (+ x_0 7)))
 (<= ?x7209 16)))
(assert
 (>= x_0 0))
(assert
 (<= y_0 12))
(assert
 (>= y_0 0))
(assert
 (<= x_0 4))
(assert
 (= ud_1_3 false))
(assert
 (let ((?x81076 (+ y_1 7)))
 (<= ?x81076 makespan)))
(assert
 (let ((?x81084 (+ x_1 4)))
 (<= ?x81084 16)))
(assert
 (>= x_1 0))
(assert
 (<= y_1 14))
(assert
 (>= y_1 0))
(assert
 (= ud_2_3 false))
(assert
 (let ((?x81124 (+ y_2 12)))
 (<= ?x81124 makespan)))
(assert
 (let ((?x81129 (+ x_2 3)))
 (<= ?x81129 16)))
(assert
 (>= x_2 0))
(assert
 (<= y_2 9))
(assert
 (>= y_2 0))
(assert
 (<= y_2 4))
(assert
 (let ((?x82169 (+ y_3 10)))
 (<= ?x82169 makespan)))
(assert
 (let ((?x81156 (+ x_3 3)))
 (<= ?x81156 16)))
(assert
 (>= x_3 0))
(assert
 (<= y_3 11))
(assert
 (>= y_3 0))
(assert
 (= ud_4_3 false))
(assert
 (let ((?x81198 (+ y_4 8)))
 (<= ?x81198 makespan)))
(assert
 (let ((?x9909 (+ x_4 3)))
 (<= ?x9909 16)))
(assert
 (>= x_4 0))
(assert
 (<= y_4 13))
(assert
 (>= y_4 0))
(assert
 (= ud_5_3 false))
(assert
 (let ((?x81234 (+ y_5 7)))
 (<= ?x81234 makespan)))
(assert
 (let ((?x81237 (+ x_5 3)))
 (<= ?x81237 16)))
(assert
 (>= x_5 0))
(assert
 (<= y_5 14))
(assert
 (>= y_5 0))
(assert
 (= ud_6_3 false))
(assert
 (let ((?x12320 (+ y_6 6)))
 (<= ?x12320 makespan)))
(assert
 (let ((?x81278 (+ x_6 3)))
 (<= ?x81278 16)))
(assert
 (>= x_6 0))
(assert
 (<= y_6 15))
(assert
 (>= y_6 0))
(assert
 (= ud_7_3 false))
(assert
 (let ((?x1956 (+ y_7 5)))
 (<= ?x1956 makespan)))
(assert
 (let ((?x81318 (+ x_7 3)))
 (<= ?x81318 16)))
(assert
 (>= x_7 0))
(assert
 (<= y_7 16))
(assert
 (>= y_7 0))
(assert
 (= ud_8_3 false))
(assert
 (let ((?x81346 (+ y_8 4)))
 (<= ?x81346 makespan)))
(assert
 (let ((?x81355 (+ x_8 3)))
 (<= ?x81355 16)))
(assert
 (>= x_8 0))
(assert
 (<= y_8 17))
(assert
 (>= y_8 0))
(assert
 (let ((?x81381 (+ y_9 3)))
 (<= ?x81381 makespan)))
(assert
 (let ((?x81390 (+ x_9 3)))
 (<= ?x81390 16)))
(assert
 (>= x_9 0))
(assert
 (<= y_9 18))
(assert
 (>= y_9 0))
(assert
 (= (<= (+ x_0 7) x_1) lr_1_2))
(assert
 (= (<= (+ y_0 9) y_1) ud_1_2))
(assert
 (= (<= (+ x_1 4) x_0) lr_2_1))
(assert
 (= (<= (+ y_1 7) y_0) ud_2_1))
(assert
 (or lr_1_2 lr_2_1 ud_1_2 ud_2_1))
(assert
 (let (($x81508 (< makespan 16)))
 (=> $x81508 (= ud_1_2 false))))
(assert
 (let (($x81508 (< makespan 16)))
 (=> $x81508 (= ud_2_1 false))))
(assert
 (= (<= (+ x_0 7) x_2) lr_1_3))
(assert
 (= (<= (+ y_0 9) y_2) ud_1_3))
(assert
 (= (<= (+ x_2 3) x_0) lr_3_1))
(assert
 (= (<= (+ y_2 12) y_0) ud_3_1))
(assert
 (or lr_1_3 lr_3_1 ud_1_3 ud_3_1))
(assert
 (let (($x9655 (= ud_1_3 false)))
 (let (($x1390 (< makespan 21)))
 (=> $x1390 $x9655))))
(assert
 (let (($x1390 (< makespan 21)))
 (=> $x1390 (= ud_3_1 false))))
(assert
 (= (<= (+ x_0 7) x_3) lr_1_4))
(assert
 (= (<= (+ y_0 9) y_3) ud_1_4))
(assert
 (= (<= (+ x_3 3) x_0) lr_4_1))
(assert
 (= (<= (+ y_3 10) y_0) ud_4_1))
(assert
 (or lr_1_4 lr_4_1 ud_1_4 ud_4_1))
(assert
 (let (($x2248 (< makespan 19)))
 (=> $x2248 (= ud_1_4 false))))
(assert
 (let (($x2248 (< makespan 19)))
 (=> $x2248 (= ud_4_1 false))))
(assert
 (= (<= (+ x_0 7) x_4) lr_1_5))
(assert
 (= (<= (+ y_0 9) y_4) ud_1_5))
(assert
 (= (<= (+ x_4 3) x_0) lr_5_1))
(assert
 (= (<= (+ y_4 8) y_0) ud_5_1))
(assert
 (or lr_1_5 lr_5_1 ud_1_5 ud_5_1))
(assert
 (let (($x6015 (< makespan 17)))
 (=> $x6015 (= ud_1_5 false))))
(assert
 (let (($x6015 (< makespan 17)))
 (=> $x6015 (= ud_5_1 false))))
(assert
 (= (<= (+ x_0 7) x_5) lr_1_6))
(assert
 (= (<= (+ y_0 9) y_5) ud_1_6))
(assert
 (= (<= (+ x_5 3) x_0) lr_6_1))
(assert
 (= (<= (+ y_5 7) y_0) ud_6_1))
(assert
 (or lr_1_6 lr_6_1 ud_1_6 ud_6_1))
(assert
 (let (($x81508 (< makespan 16)))
 (=> $x81508 (= ud_1_6 false))))
(assert
 (let (($x81508 (< makespan 16)))
 (=> $x81508 (= ud_6_1 false))))
(assert
 (= (<= (+ x_0 7) x_6) lr_1_7))
(assert
 (= (<= (+ y_0 9) y_6) ud_1_7))
(assert
 (= (<= (+ x_6 3) x_0) lr_7_1))
(assert
 (= (<= (+ y_6 6) y_0) ud_7_1))
(assert
 (or lr_1_7 lr_7_1 ud_1_7 ud_7_1))
(assert
 (let (($x6580 (< makespan 15)))
 (=> $x6580 (= ud_1_7 false))))
(assert
 (let (($x6580 (< makespan 15)))
 (=> $x6580 (= ud_7_1 false))))
(assert
 (= (<= (+ x_0 7) x_7) lr_1_8))
(assert
 (= (<= (+ y_0 9) y_7) ud_1_8))
(assert
 (= (<= (+ x_7 3) x_0) lr_8_1))
(assert
 (= (<= (+ y_7 5) y_0) ud_8_1))
(assert
 (or lr_1_8 lr_8_1 ud_1_8 ud_8_1))
(assert
 (let (($x82349 (< makespan 14)))
 (=> $x82349 (= ud_1_8 false))))
(assert
 (let (($x82349 (< makespan 14)))
 (=> $x82349 (= ud_8_1 false))))
(assert
 (= (<= (+ x_0 7) x_8) lr_1_9))
(assert
 (= (<= (+ y_0 9) y_8) ud_1_9))
(assert
 (= (<= (+ x_8 3) x_0) lr_9_1))
(assert
 (= (<= (+ y_8 4) y_0) ud_9_1))
(assert
 (or lr_1_9 lr_9_1 ud_1_9 ud_9_1))
(assert
 (let (($x5269 (< makespan 13)))
 (=> $x5269 (= ud_1_9 false))))
(assert
 (let (($x5269 (< makespan 13)))
 (=> $x5269 (= ud_9_1 false))))
(assert
 (= (<= (+ x_0 7) x_9) lr_1_10))
(assert
 (= (<= (+ y_0 9) y_9) ud_1_10))
(assert
 (= (<= (+ x_9 3) x_0) lr_10_1))
(assert
 (= (<= (+ y_9 3) y_0) ud_10_1))
(assert
 (or lr_1_10 lr_10_1 ud_1_10 ud_10_1))
(assert
 (let (($x1315 (< makespan 12)))
 (=> $x1315 (= ud_1_10 false))))
(assert
 (let (($x1315 (< makespan 12)))
 (=> $x1315 (= ud_10_1 false))))
(assert
 (= (<= (+ x_1 4) x_2) lr_2_3))
(assert
 (= (<= (+ y_1 7) y_2) ud_2_3))
(assert
 (= (<= (+ x_2 3) x_1) lr_3_2))
(assert
 (= (<= (+ y_2 12) y_1) ud_3_2))
(assert
 (or lr_2_3 lr_3_2 ud_2_3 ud_3_2))
(assert
 (let (($x81117 (= ud_2_3 false)))
 (let (($x2248 (< makespan 19)))
 (=> $x2248 $x81117))))
(assert
 (let (($x2248 (< makespan 19)))
 (=> $x2248 (= ud_3_2 false))))
(assert
 (= (<= (+ x_1 4) x_3) lr_2_4))
(assert
 (= (<= (+ y_1 7) y_3) ud_2_4))
(assert
 (= (<= (+ x_3 3) x_1) lr_4_2))
(assert
 (= (<= (+ y_3 10) y_1) ud_4_2))
(assert
 (or lr_2_4 lr_4_2 ud_2_4 ud_4_2))
(assert
 (let (($x6015 (< makespan 17)))
 (=> $x6015 (= ud_2_4 false))))
(assert
 (let (($x6015 (< makespan 17)))
 (=> $x6015 (= ud_4_2 false))))
(assert
 (= (<= (+ x_1 4) x_4) lr_2_5))
(assert
 (= (<= (+ y_1 7) y_4) ud_2_5))
(assert
 (= (<= (+ x_4 3) x_1) lr_5_2))
(assert
 (= (<= (+ y_4 8) y_1) ud_5_2))
(assert
 (or lr_2_5 lr_5_2 ud_2_5 ud_5_2))
(assert
 (let (($x6580 (< makespan 15)))
 (=> $x6580 (= ud_2_5 false))))
(assert
 (let (($x6580 (< makespan 15)))
 (=> $x6580 (= ud_5_2 false))))
(assert
 (= (<= (+ x_1 4) x_5) lr_2_6))
(assert
 (= (<= (+ y_1 7) y_5) ud_2_6))
(assert
 (= (<= (+ x_5 3) x_1) lr_6_2))
(assert
 (= (<= (+ y_5 7) y_1) ud_6_2))
(assert
 (or lr_2_6 lr_6_2 ud_2_6 ud_6_2))
(assert
 (let (($x82349 (< makespan 14)))
 (=> $x82349 (= ud_2_6 false))))
(assert
 (let (($x82349 (< makespan 14)))
 (=> $x82349 (= ud_6_2 false))))
(assert
 (= (<= (+ x_1 4) x_6) lr_2_7))
(assert
 (= (<= (+ y_1 7) y_6) ud_2_7))
(assert
 (= (<= (+ x_6 3) x_1) lr_7_2))
(assert
 (= (<= (+ y_6 6) y_1) ud_7_2))
(assert
 (or lr_2_7 lr_7_2 ud_2_7 ud_7_2))
(assert
 (let (($x5269 (< makespan 13)))
 (=> $x5269 (= ud_2_7 false))))
(assert
 (let (($x5269 (< makespan 13)))
 (=> $x5269 (= ud_7_2 false))))
(assert
 (= (<= (+ x_1 4) x_7) lr_2_8))
(assert
 (= (<= (+ y_1 7) y_7) ud_2_8))
(assert
 (= (<= (+ x_7 3) x_1) lr_8_2))
(assert
 (= (<= (+ y_7 5) y_1) ud_8_2))
(assert
 (or lr_2_8 lr_8_2 ud_2_8 ud_8_2))
(assert
 (let (($x1315 (< makespan 12)))
 (=> $x1315 (= ud_2_8 false))))
(assert
 (let (($x1315 (< makespan 12)))
 (=> $x1315 (= ud_8_2 false))))
(assert
 (= (<= (+ x_1 4) x_8) lr_2_9))
(assert
 (= (<= (+ y_1 7) y_8) ud_2_9))
(assert
 (= (<= (+ x_8 3) x_1) lr_9_2))
(assert
 (= (<= (+ y_8 4) y_1) ud_9_2))
(assert
 (or lr_2_9 lr_9_2 ud_2_9 ud_9_2))
(assert
 (let (($x1345 (< makespan 11)))
 (=> $x1345 (= ud_2_9 false))))
(assert
 (let (($x1345 (< makespan 11)))
 (=> $x1345 (= ud_9_2 false))))
(assert
 (= (<= (+ x_1 4) x_9) lr_2_10))
(assert
 (= (<= (+ y_1 7) y_9) ud_2_10))
(assert
 (= (<= (+ x_9 3) x_1) lr_10_2))
(assert
 (= (<= (+ y_9 3) y_1) ud_10_2))
(assert
 (or lr_2_10 lr_10_2 ud_2_10 ud_10_2))
(assert
 (let (($x8380 (< makespan 10)))
 (=> $x8380 (= ud_2_10 false))))
(assert
 (let (($x8380 (< makespan 10)))
 (=> $x8380 (= ud_10_2 false))))
(assert
 (= (<= (+ x_2 3) x_3) lr_3_4))
(assert
 (= (<= (+ y_2 12) y_3) ud_3_4))
(assert
 (= (<= (+ x_3 3) x_2) lr_4_3))
(assert
 (= (<= (+ y_3 10) y_2) ud_4_3))
(assert
 (or lr_3_4 lr_4_3 ud_3_4 ud_4_3))
(assert
 (let (($x82071 (< makespan 22)))
 (=> $x82071 (= ud_3_4 false))))
(assert
 (let (($x5034 (= ud_4_3 false)))
 (let (($x82071 (< makespan 22)))
 (=> $x82071 $x5034))))
(assert
 (= (<= (+ x_2 3) x_4) lr_3_5))
(assert
 (= (<= (+ y_2 12) y_4) ud_3_5))
(assert
 (= (<= (+ x_4 3) x_2) lr_5_3))
(assert
 (= (<= (+ y_4 8) y_2) ud_5_3))
(assert
 (or lr_3_5 lr_5_3 ud_3_5 ud_5_3))
(assert
 (let (($x81691 (< makespan 20)))
 (=> $x81691 (= ud_3_5 false))))
(assert
 (let (($x81228 (= ud_5_3 false)))
 (let (($x81691 (< makespan 20)))
 (=> $x81691 $x81228))))
(assert
 (= (<= (+ x_2 3) x_5) lr_3_6))
(assert
 (= (<= (+ y_2 12) y_5) ud_3_6))
(assert
 (= (<= (+ x_5 3) x_2) lr_6_3))
(assert
 (= (<= (+ y_5 7) y_2) ud_6_3))
(assert
 (or lr_3_6 lr_6_3 ud_3_6 ud_6_3))
(assert
 (let (($x2248 (< makespan 19)))
 (=> $x2248 (= ud_3_6 false))))
(assert
 (let (($x83127 (= ud_6_3 false)))
 (let (($x2248 (< makespan 19)))
 (=> $x2248 $x83127))))
(assert
 (= (<= (+ x_2 3) x_6) lr_3_7))
(assert
 (= (<= (+ y_2 12) y_6) ud_3_7))
(assert
 (= (<= (+ x_6 3) x_2) lr_7_3))
(assert
 (= (<= (+ y_6 6) y_2) ud_7_3))
(assert
 (or lr_3_7 lr_7_3 ud_3_7 ud_7_3))
(assert
 (let (($x80982 (< makespan 18)))
 (=> $x80982 (= ud_3_7 false))))
(assert
 (let (($x81305 (= ud_7_3 false)))
 (let (($x80982 (< makespan 18)))
 (=> $x80982 $x81305))))
(assert
 (= (<= (+ x_2 3) x_7) lr_3_8))
(assert
 (= (<= (+ y_2 12) y_7) ud_3_8))
(assert
 (= (<= (+ x_7 3) x_2) lr_8_3))
(assert
 (= (<= (+ y_7 5) y_2) ud_8_3))
(assert
 (or lr_3_8 lr_8_3 ud_3_8 ud_8_3))
(assert
 (let (($x6015 (< makespan 17)))
 (=> $x6015 (= ud_3_8 false))))
(assert
 (let (($x7649 (= ud_8_3 false)))
 (let (($x6015 (< makespan 17)))
 (=> $x6015 $x7649))))
(assert
 (= (<= (+ x_2 3) x_8) lr_3_9))
(assert
 (= (<= (+ y_2 12) y_8) ud_3_9))
(assert
 (= (<= (+ x_8 3) x_2) lr_9_3))
(assert
 (= (<= (+ y_8 4) y_2) ud_9_3))
(assert
 (or lr_3_9 lr_9_3 ud_3_9 ud_9_3))
(assert
 (let (($x81508 (< makespan 16)))
 (=> $x81508 (= ud_3_9 false))))
(assert
 (let (($x81508 (< makespan 16)))
 (=> $x81508 (= ud_9_3 false))))
(assert
 (= (<= (+ x_2 3) x_9) lr_3_10))
(assert
 (= (<= (+ y_2 12) y_9) ud_3_10))
(assert
 (= (<= (+ x_9 3) x_2) lr_10_3))
(assert
 (= (<= (+ y_9 3) y_2) ud_10_3))
(assert
 (or lr_3_10 lr_10_3 ud_3_10 ud_10_3))
(assert
 (let (($x6580 (< makespan 15)))
 (=> $x6580 (= ud_3_10 false))))
(assert
 (let (($x6580 (< makespan 15)))
 (=> $x6580 (= ud_10_3 false))))
(assert
 (= (<= (+ x_3 3) x_4) lr_4_5))
(assert
 (= (<= (+ y_3 10) y_4) ud_4_5))
(assert
 (= (<= (+ x_4 3) x_3) lr_5_4))
(assert
 (= (<= (+ y_4 8) y_3) ud_5_4))
(assert
 (or lr_4_5 lr_5_4 ud_4_5 ud_5_4))
(assert
 (let (($x80982 (< makespan 18)))
 (=> $x80982 (= ud_4_5 false))))
(assert
 (let (($x80982 (< makespan 18)))
 (=> $x80982 (= ud_5_4 false))))
(assert
 (= (<= (+ x_3 3) x_5) lr_4_6))
(assert
 (= (<= (+ y_3 10) y_5) ud_4_6))
(assert
 (= (<= (+ x_5 3) x_3) lr_6_4))
(assert
 (= (<= (+ y_5 7) y_3) ud_6_4))
(assert
 (or lr_4_6 lr_6_4 ud_4_6 ud_6_4))
(assert
 (let (($x6015 (< makespan 17)))
 (=> $x6015 (= ud_4_6 false))))
(assert
 (let (($x6015 (< makespan 17)))
 (=> $x6015 (= ud_6_4 false))))
(assert
 (= (<= (+ x_3 3) x_6) lr_4_7))
(assert
 (= (<= (+ y_3 10) y_6) ud_4_7))
(assert
 (= (<= (+ x_6 3) x_3) lr_7_4))
(assert
 (= (<= (+ y_6 6) y_3) ud_7_4))
(assert
 (or lr_4_7 lr_7_4 ud_4_7 ud_7_4))
(assert
 (let (($x81508 (< makespan 16)))
 (=> $x81508 (= ud_4_7 false))))
(assert
 (let (($x81508 (< makespan 16)))
 (=> $x81508 (= ud_7_4 false))))
(assert
 (= (<= (+ x_3 3) x_7) lr_4_8))
(assert
 (= (<= (+ y_3 10) y_7) ud_4_8))
(assert
 (= (<= (+ x_7 3) x_3) lr_8_4))
(assert
 (= (<= (+ y_7 5) y_3) ud_8_4))
(assert
 (or lr_4_8 lr_8_4 ud_4_8 ud_8_4))
(assert
 (let (($x6580 (< makespan 15)))
 (=> $x6580 (= ud_4_8 false))))
(assert
 (let (($x6580 (< makespan 15)))
 (=> $x6580 (= ud_8_4 false))))
(assert
 (= (<= (+ x_3 3) x_8) lr_4_9))
(assert
 (= (<= (+ y_3 10) y_8) ud_4_9))
(assert
 (= (<= (+ x_8 3) x_3) lr_9_4))
(assert
 (= (<= (+ y_8 4) y_3) ud_9_4))
(assert
 (or lr_4_9 lr_9_4 ud_4_9 ud_9_4))
(assert
 (let (($x82349 (< makespan 14)))
 (=> $x82349 (= ud_4_9 false))))
(assert
 (let (($x82349 (< makespan 14)))
 (=> $x82349 (= ud_9_4 false))))
(assert
 (= (<= (+ x_3 3) x_9) lr_4_10))
(assert
 (= (<= (+ y_3 10) y_9) ud_4_10))
(assert
 (= (<= (+ x_9 3) x_3) lr_10_4))
(assert
 (= (<= (+ y_9 3) y_3) ud_10_4))
(assert
 (or lr_4_10 lr_10_4 ud_4_10 ud_10_4))
(assert
 (let (($x5269 (< makespan 13)))
 (=> $x5269 (= ud_4_10 false))))
(assert
 (let (($x5269 (< makespan 13)))
 (=> $x5269 (= ud_10_4 false))))
(assert
 (= (<= (+ x_4 3) x_5) lr_5_6))
(assert
 (= (<= (+ y_4 8) y_5) ud_5_6))
(assert
 (= (<= (+ x_5 3) x_4) lr_6_5))
(assert
 (= (<= (+ y_5 7) y_4) ud_6_5))
(assert
 (or lr_5_6 lr_6_5 ud_5_6 ud_6_5))
(assert
 (let (($x6580 (< makespan 15)))
 (=> $x6580 (= ud_5_6 false))))
(assert
 (let (($x6580 (< makespan 15)))
 (=> $x6580 (= ud_6_5 false))))
(assert
 (= (<= (+ x_4 3) x_6) lr_5_7))
(assert
 (= (<= (+ y_4 8) y_6) ud_5_7))
(assert
 (= (<= (+ x_6 3) x_4) lr_7_5))
(assert
 (= (<= (+ y_6 6) y_4) ud_7_5))
(assert
 (or lr_5_7 lr_7_5 ud_5_7 ud_7_5))
(assert
 (let (($x82349 (< makespan 14)))
 (=> $x82349 (= ud_5_7 false))))
(assert
 (let (($x82349 (< makespan 14)))
 (=> $x82349 (= ud_7_5 false))))
(assert
 (= (<= (+ x_4 3) x_7) lr_5_8))
(assert
 (= (<= (+ y_4 8) y_7) ud_5_8))
(assert
 (= (<= (+ x_7 3) x_4) lr_8_5))
(assert
 (= (<= (+ y_7 5) y_4) ud_8_5))
(assert
 (or lr_5_8 lr_8_5 ud_5_8 ud_8_5))
(assert
 (let (($x5269 (< makespan 13)))
 (=> $x5269 (= ud_5_8 false))))
(assert
 (let (($x5269 (< makespan 13)))
 (=> $x5269 (= ud_8_5 false))))
(assert
 (= (<= (+ x_4 3) x_8) lr_5_9))
(assert
 (= (<= (+ y_4 8) y_8) ud_5_9))
(assert
 (= (<= (+ x_8 3) x_4) lr_9_5))
(assert
 (= (<= (+ y_8 4) y_4) ud_9_5))
(assert
 (or lr_5_9 lr_9_5 ud_5_9 ud_9_5))
(assert
 (let (($x1315 (< makespan 12)))
 (=> $x1315 (= ud_5_9 false))))
(assert
 (let (($x1315 (< makespan 12)))
 (=> $x1315 (= ud_9_5 false))))
(assert
 (= (<= (+ x_4 3) x_9) lr_5_10))
(assert
 (= (<= (+ y_4 8) y_9) ud_5_10))
(assert
 (= (<= (+ x_9 3) x_4) lr_10_5))
(assert
 (= (<= (+ y_9 3) y_4) ud_10_5))
(assert
 (or lr_5_10 lr_10_5 ud_5_10 ud_10_5))
(assert
 (let (($x1345 (< makespan 11)))
 (=> $x1345 (= ud_5_10 false))))
(assert
 (let (($x1345 (< makespan 11)))
 (=> $x1345 (= ud_10_5 false))))
(assert
 (= (<= (+ x_5 3) x_6) lr_6_7))
(assert
 (= (<= (+ y_5 7) y_6) ud_6_7))
(assert
 (= (<= (+ x_6 3) x_5) lr_7_6))
(assert
 (= (<= (+ y_6 6) y_5) ud_7_6))
(assert
 (or lr_6_7 lr_7_6 ud_6_7 ud_7_6))
(assert
 (let (($x5269 (< makespan 13)))
 (=> $x5269 (= ud_6_7 false))))
(assert
 (let (($x5269 (< makespan 13)))
 (=> $x5269 (= ud_7_6 false))))
(assert
 (= (<= (+ x_5 3) x_7) lr_6_8))
(assert
 (= (<= (+ y_5 7) y_7) ud_6_8))
(assert
 (= (<= (+ x_7 3) x_5) lr_8_6))
(assert
 (= (<= (+ y_7 5) y_5) ud_8_6))
(assert
 (or lr_6_8 lr_8_6 ud_6_8 ud_8_6))
(assert
 (let (($x1315 (< makespan 12)))
 (=> $x1315 (= ud_6_8 false))))
(assert
 (let (($x1315 (< makespan 12)))
 (=> $x1315 (= ud_8_6 false))))
(assert
 (= (<= (+ x_5 3) x_8) lr_6_9))
(assert
 (= (<= (+ y_5 7) y_8) ud_6_9))
(assert
 (= (<= (+ x_8 3) x_5) lr_9_6))
(assert
 (= (<= (+ y_8 4) y_5) ud_9_6))
(assert
 (or lr_6_9 lr_9_6 ud_6_9 ud_9_6))
(assert
 (let (($x1345 (< makespan 11)))
 (=> $x1345 (= ud_6_9 false))))
(assert
 (let (($x1345 (< makespan 11)))
 (=> $x1345 (= ud_9_6 false))))
(assert
 (= (<= (+ x_5 3) x_9) lr_6_10))
(assert
 (= (<= (+ y_5 7) y_9) ud_6_10))
(assert
 (= (<= (+ x_9 3) x_5) lr_10_6))
(assert
 (= (<= (+ y_9 3) y_5) ud_10_6))
(assert
 (or lr_6_10 lr_10_6 ud_6_10 ud_10_6))
(assert
 (let (($x8380 (< makespan 10)))
 (=> $x8380 (= ud_6_10 false))))
(assert
 (let (($x8380 (< makespan 10)))
 (=> $x8380 (= ud_10_6 false))))
(assert
 (= (<= (+ x_6 3) x_7) lr_7_8))
(assert
 (= (<= (+ y_6 6) y_7) ud_7_8))
(assert
 (= (<= (+ x_7 3) x_6) lr_8_7))
(assert
 (= (<= (+ y_7 5) y_6) ud_8_7))
(assert
 (or lr_7_8 lr_8_7 ud_7_8 ud_8_7))
(assert
 (let (($x1345 (< makespan 11)))
 (=> $x1345 (= ud_7_8 false))))
(assert
 (let (($x1345 (< makespan 11)))
 (=> $x1345 (= ud_8_7 false))))
(assert
 (= (<= (+ x_6 3) x_8) lr_7_9))
(assert
 (= (<= (+ y_6 6) y_8) ud_7_9))
(assert
 (= (<= (+ x_8 3) x_6) lr_9_7))
(assert
 (= (<= (+ y_8 4) y_6) ud_9_7))
(assert
 (or lr_7_9 lr_9_7 ud_7_9 ud_9_7))
(assert
 (let (($x8380 (< makespan 10)))
 (=> $x8380 (= ud_7_9 false))))
(assert
 (let (($x8380 (< makespan 10)))
 (=> $x8380 (= ud_9_7 false))))
(assert
 (= (<= (+ x_6 3) x_9) lr_7_10))
(assert
 (= (<= (+ y_6 6) y_9) ud_7_10))
(assert
 (= (<= (+ x_9 3) x_6) lr_10_7))
(assert
 (= (<= (+ y_9 3) y_6) ud_10_7))
(assert
 (or lr_7_10 lr_10_7 ud_7_10 ud_10_7))
(assert
 (let (($x82479 (< makespan 9)))
 (=> $x82479 (= ud_7_10 false))))
(assert
 (let (($x82479 (< makespan 9)))
 (=> $x82479 (= ud_10_7 false))))
(assert
 (= (<= (+ x_7 3) x_8) lr_8_9))
(assert
 (= (<= (+ y_7 5) y_8) ud_8_9))
(assert
 (= (<= (+ x_8 3) x_7) lr_9_8))
(assert
 (= (<= (+ y_8 4) y_7) ud_9_8))
(assert
 (or lr_8_9 lr_9_8 ud_8_9 ud_9_8))
(assert
 (let (($x82479 (< makespan 9)))
 (=> $x82479 (= ud_8_9 false))))
(assert
 (let (($x82479 (< makespan 9)))
 (=> $x82479 (= ud_9_8 false))))
(assert
 (= (<= (+ x_7 3) x_9) lr_8_10))
(assert
 (= (<= (+ y_7 5) y_9) ud_8_10))
(assert
 (= (<= (+ x_9 3) x_7) lr_10_8))
(assert
 (= (<= (+ y_9 3) y_7) ud_10_8))
(assert
 (or lr_8_10 lr_10_8 ud_8_10 ud_10_8))
(assert
 (let (($x83016 (< makespan 8)))
 (=> $x83016 (= ud_8_10 false))))
(assert
 (let (($x83016 (< makespan 8)))
 (=> $x83016 (= ud_10_8 false))))
(assert
 (= (<= (+ x_8 3) x_9) lr_9_10))
(assert
 (= (<= (+ y_8 4) y_9) ud_9_10))
(assert
 (= (<= (+ x_9 3) x_8) lr_10_9))
(assert
 (= (<= (+ y_9 3) y_8) ud_10_9))
(assert
 (or lr_9_10 lr_10_9 ud_9_10 ud_10_9))
(assert
 (let (($x83226 (< makespan 7)))
 (=> $x83226 (= ud_9_10 false))))
(assert
 (let (($x83226 (< makespan 7)))
 (=> $x83226 (= ud_10_9 false))))
(check-sat)
